##############################################################################
###               Entry exported from Match! User Database                 ###
##############################################################################
###                           Data published by:                           ###
###                                                                        ###
###               COD (Crystallography Open Database)                      ###
##############################################################################
data_9011388
_citation_journal_full    'Acta Crystallographica, Section C'
_citation_journal_volume  '58'
_citation_page_first  'i82'
_citation_page_last   'i84'
_citation_year  '2002'
_citation_title  'Synthetic hydrocerussite, 2PbCO3*Pb(OH)2 by X-ray powder diffraction Locality: synthetic'
loop_
_publ_author_name
  'Martinetto P.'
  'Anne M.'
  'Dooryhee E.'
  'Walter P.'
  'Tsoucaris G.'
_chemical_formula_sum  'C H O4 Pb1.5'
_chemical_name_mineral  'Hydrocerussite'
_symmetry_space_group_name_H-M 'R -3 m:H'
_space_group_IT_number 166
_space_group_crystal_system 'hexagonal'
loop_
_symmetry_equiv_pos_as_xyz
   'x, y, z'
   'x+0.66667, y+0.33333, z+0.33333'
   'x+0.33333, y+0.66667, z+0.66667'
   '-y, x-y, z'
   '-y+0.66667, x-y+0.33333, z+0.33333'
   '-y+0.33333, x-y+0.66667, z+0.66667'
   '-x+y, -x, z'
   '-x+y+0.66667, -x+0.33333, z+0.33333'
   '-x+y+0.33333, -x+0.66667, z+0.66667'
   'x-y, -y, -z'
   'x-y+0.66667, -y+0.33333, -z+0.33333'
   'x-y+0.33333, -y+0.66667, -z+0.66667'
   '-x, -x+y, -z'
   '-x+0.66667, -x+y+0.33333, -z+0.33333'
   '-x+0.33333, -x+y+0.66667, -z+0.66667'
   'y, x, -z'
   'y+0.66667, x+0.33333, -z+0.33333'
   'y+0.33333, x+0.66667, -z+0.66667'
   '-x, -y, -z'
   '-x+0.66667, -y+0.33333, -z+0.33333'
   '-x+0.33333, -y+0.66667, -z+0.66667'
   'y, -x+y, -z'
   'y+0.66667, -x+y+0.33333, -z+0.33333'
   'y+0.33333, -x+y+0.66667, -z+0.66667'
   'x-y, x, -z'
   'x-y+0.66667, x+0.33333, -z+0.33333'
   'x-y+0.33333, x+0.66667, -z+0.66667'
   '-x+y, y, z'
   '-x+y+0.66667, y+0.33333, z+0.33333'
   '-x+y+0.33333, y+0.66667, z+0.66667'
   'x, x-y, z'
   'x+0.66667, x-y+0.33333, z+0.33333'
   'x+0.33333, x-y+0.66667, z+0.66667'
   '-y, -x, z'
   '-y+0.66667, -x+0.33333, z+0.33333'
   '-y+0.33333, -x+0.66667, z+0.66667'
_cell_length_a        5.2465
_cell_length_b        5.2465
_cell_length_c       23.7020
_cell_angle_alpha    90.000
_cell_angle_beta     90.000
_cell_angle_gamma   120.000
loop_
_atom_site_label
_atom_site_fract_x
_atom_site_fract_y
_atom_site_fract_z
_atom_site_occupancy
_atom_site_B_iso_or_equiv
pb      0.000   0.000   0.215    1.00000    1.358
pb      0.916   -0.916   0.002    0.16650    1.697
c      0.000   0.000   0.430    1.00000    2.209
o      0.857   -0.857   0.432    1.00000    2.209
o      -0.293   0.293   0.020    0.33330    0.789
_cell_measurement_wavelength    1.540598
_cell_measurement_radiation   'x-rays'
_exptl_crystal_density_diffrn    6.839000
loop_
_pd_peak_d_spacing
_pd_peak_calc_intensity_net
     7.900667         26.10
     4.462351        273.48
     4.242485        271.05
     3.950333          0.35
     3.605620        748.51
     3.280179       1000.00
     2.715012         87.43
     2.633556        341.12
     2.623250        538.70
     2.489606         92.86
     2.481748          0.36
     2.261437         13.58
     2.231176        243.57
     2.185304          0.58
     2.121242        148.64
     2.101455        181.38
     2.048686        182.57
     1.975167          3.82
     1.946895         16.75
     1.886524        127.06
     1.858551        293.07
     1.802810          0.40
     1.712830          3.98
     1.699569        163.99
     1.692083         31.96
     1.649444         37.05
     1.640089         25.21
     1.614632         72.76
     1.586447        133.22
     1.580133          3.56
     1.577899         70.01
     1.563373         38.78
     1.531592        131.88
     1.514534         40.80
     1.487450         60.09
     1.485769         12.94
     1.421935         11.22
     1.414162         12.32
     1.408409          9.62
     1.390660         30.43
     1.357506         42.43
     1.353544          6.48
     1.342964         39.79
     1.332893          3.27
     1.316778         14.68
     1.312908         37.42
     1.311625         33.89
     1.293916         39.16
     1.258391          0.13
     1.253104         64.39
     1.250095          2.33
     1.244803         14.16
     1.240874         17.46
     1.232603          8.92
     1.217870         25.84
     1.205638         35.23
     1.202957         40.54
     1.201873         51.56
     1.188297          3.00
     1.181028         59.64
     1.176836         28.42
     1.174070         32.96
     1.159631          7.41
     1.146735          0.01
     1.134598          0.00
     1.130719         27.95
     1.128667          1.22
     1.121709         35.83
     1.115588          4.72
     1.112680          4.38
     1.104630          8.14
     1.093466         11.98
     1.093393          0.09
     1.092652         31.85
     1.087793         23.58
     1.082421         17.17
     1.076918         23.81
     1.060621          2.69
     1.050727          1.22
     1.048297          0.59
     1.041367          0.06
     1.038365         23.53
     1.036775         22.96
     1.036651          0.03
     1.026610          9.00
     1.024343          1.84
     1.018052         21.19
     1.010874         21.59
     1.009292         21.32
     1.009235          0.42
##############################################################################
###                            Comments                                    ###
##############################################################################
###   Diffraction pattern calculated by Match!. 
###   I/Icor calculated by Match!. 
##############################################################################


